2003747
20,2,60,23,41,11,0,46,3,19,64,47,1,26,16,8,57,14,7,35,27,30,21,51,13,43,56,17,9,32,49,58,15,62,67,34,50,38,61,52,36,44,12,53,31,55,39,4,59,22,48,18,28,24,29,40,5,63,10,65,25,66,6,33,54,45,42,37,20
